% seed = 0

mint = 31;
% maxt = 195;

nActs = 92;
dur = [0,1,1,2,3,1,2,1,1,3,1,1,2,2,2,5,4,2,3,3,2,1,2,2,2,1,4,4,1,1,4,4,1,6,2,2,1,3,1,3,4,1,2,4,3,2,2,1,1,3,3,1,3,1,1,3,1,2,1,2,2,2,3,1,2,3,2,2,2,1,2,2,2,2,2,2,1,3,3,1,3,2,2,2,1,2,2,3,5,4,1,0];

nSkills = 12;
sreq = [| 0,0,0,0,0,0,0,0,0,0,0,0,
	| 0,0,1,0,0,0,0,0,1,0,0,0,
	| 0,1,0,0,0,1,0,0,1,0,0,0,
	| 0,0,0,0,0,1,0,2,1,0,0,0,
	| 0,0,1,0,1,0,0,0,0,1,1,0,
	| 0,1,0,0,1,1,0,0,0,0,1,0,
	| 0,0,0,0,0,0,0,1,1,1,0,0,
	| 1,0,1,0,0,1,0,0,3,0,0,0,
	| 0,0,1,0,0,1,0,0,0,1,1,1,
	| 0,0,0,0,0,2,0,0,0,1,0,0,
	| 0,0,0,0,0,1,0,0,1,0,0,0,
	| 0,0,0,1,0,0,0,0,0,0,0,0,
	| 0,1,0,0,0,2,0,1,2,0,1,0,
	| 1,0,0,0,0,0,1,0,0,1,1,0,
	| 0,0,0,0,1,0,0,0,2,1,0,1,
	| 1,0,0,0,0,0,0,0,0,0,0,0,
	| 1,0,0,0,0,0,0,0,0,0,0,0,
	| 0,0,0,0,0,0,1,1,0,0,0,0,
	| 0,0,0,0,0,1,0,0,2,0,0,0,
	| 0,0,0,0,0,0,0,0,0,1,0,0,
	| 0,1,1,0,0,0,0,1,3,1,0,0,
	| 1,0,1,0,0,1,0,1,1,0,1,1,
	| 0,1,0,0,0,0,0,1,0,0,1,0,
	| 0,0,1,0,1,1,0,0,2,0,1,0,
	| 0,0,0,0,1,0,0,0,0,0,2,0,
	| 0,0,0,1,0,1,0,0,0,0,0,1,
	| 0,1,0,0,0,1,0,1,0,0,0,0,
	| 0,0,0,0,1,1,0,0,0,0,0,0,
	| 0,0,0,0,1,0,0,0,0,0,0,0,
	| 0,1,1,0,0,2,0,1,0,0,0,0,
	| 0,0,1,0,0,0,0,0,1,1,1,1,
	| 0,0,1,0,0,0,0,0,0,0,0,0,
	| 0,0,0,0,0,0,0,0,2,1,0,0,
	| 0,0,0,0,0,1,1,1,2,1,0,1,
	| 0,0,1,0,1,0,0,1,0,0,1,0,
	| 0,1,0,0,0,1,0,0,1,0,0,0,
	| 0,0,0,0,0,1,1,1,0,0,0,0,
	| 0,0,0,0,0,0,0,0,3,0,0,1,
	| 0,0,0,0,0,0,0,0,0,0,1,0,
	| 0,0,0,0,0,1,0,0,2,0,1,1,
	| 0,0,0,0,0,1,0,0,0,0,0,0,
	| 0,0,0,1,0,1,0,0,1,0,0,0,
	| 0,0,1,1,0,0,0,0,2,0,0,0,
	| 0,0,0,0,0,0,0,0,0,0,1,0,
	| 0,0,1,0,2,0,0,0,1,1,0,0,
	| 0,0,0,0,1,0,1,1,1,1,0,1,
	| 0,0,0,0,1,0,0,1,0,1,0,0,
	| 0,0,0,0,1,1,0,1,2,0,0,0,
	| 0,0,0,0,0,1,1,0,1,1,1,0,
	| 0,0,1,0,1,0,0,1,0,0,0,0,
	| 0,0,0,1,1,1,0,0,1,0,1,0,
	| 0,0,0,0,1,1,1,0,2,1,1,0,
	| 0,0,0,0,0,3,0,0,2,1,1,0,
	| 1,0,0,0,0,1,0,0,3,1,1,0,
	| 0,0,0,0,1,1,0,2,1,1,0,0,
	| 0,0,0,0,1,0,1,0,1,0,0,0,
	| 0,0,0,0,1,2,1,1,0,0,1,0,
	| 0,0,0,0,0,0,0,0,1,0,1,0,
	| 0,0,0,0,0,0,0,0,1,0,0,0,
	| 0,0,0,0,0,0,0,1,1,0,0,0,
	| 0,0,0,0,0,1,0,1,0,1,0,0,
	| 0,0,1,0,1,0,0,0,0,0,0,0,
	| 0,0,0,0,0,1,0,0,0,1,0,1,
	| 0,0,0,1,0,1,0,0,3,1,1,0,
	| 0,0,0,1,0,0,0,1,1,1,0,0,
	| 0,1,0,0,0,0,0,1,1,1,0,1,
	| 0,0,1,0,2,1,0,1,1,0,1,0,
	| 0,0,0,0,0,0,0,0,0,0,1,0,
	| 0,0,0,0,0,0,0,1,0,0,0,0,
	| 0,0,1,1,0,0,0,0,2,0,1,1,
	| 0,0,0,0,0,0,0,0,3,1,2,0,
	| 0,1,1,1,0,0,0,0,1,0,0,0,
	| 0,0,1,0,0,0,0,0,3,0,1,0,
	| 0,0,1,0,1,0,0,2,2,0,1,0,
	| 0,0,0,0,1,0,0,1,3,0,1,0,
	| 0,0,1,0,0,0,0,0,1,1,0,1,
	| 0,0,0,0,0,2,1,0,0,1,0,1,
	| 0,0,2,0,1,1,1,1,0,0,1,0,
	| 0,0,0,0,2,0,1,1,0,0,1,1,
	| 0,0,0,0,0,0,0,2,0,0,0,0,
	| 0,0,1,1,0,1,0,0,2,1,0,0,
	| 0,0,0,0,0,1,1,1,2,0,1,1,
	| 0,0,0,0,0,0,0,0,1,1,1,1,
	| 0,0,0,0,0,1,0,0,0,0,0,0,
	| 0,0,1,1,0,1,0,0,1,1,0,1,
	| 0,0,1,0,0,0,0,1,0,0,1,1,
	| 0,0,1,0,0,0,0,1,1,1,0,0,
	| 0,0,1,0,0,1,0,1,1,1,1,0,
	| 0,0,1,0,0,1,0,0,2,0,0,0,
	| 1,0,0,0,0,1,1,1,1,0,0,0,
	| 0,0,0,0,0,2,1,0,0,0,1,0,
	| 0,0,0,0,0,0,0,0,0,0,0,0, |];

% SumOfsreq = 361;

nResources = 22;
mastery = [| false,false,false,false,false,false,false,false,false,true,true,true,
	| false,false,false,false,false,true,false,false,true,false,false,true,
	| false,false,false,false,false,false,false,true,true,false,false,false,
	| false,false,false,false,true,true,false,false,false,false,false,false,
	| false,false,false,true,true,true,false,true,true,false,false,false,
	| false,false,false,false,false,false,false,false,false,true,true,true,
	| false,false,false,false,false,false,false,false,false,false,false,true,
	| false,false,false,true,true,true,false,false,false,false,false,false,
	| false,false,false,false,false,true,false,true,true,false,false,false,
	| false,false,false,false,false,false,false,false,true,false,false,false,
	| false,false,false,false,false,false,false,false,true,false,false,false,
	| false,false,false,false,false,false,false,false,false,true,true,true,
	| false,false,false,true,true,true,true,true,true,false,false,false,
	| false,false,true,false,false,false,false,false,false,false,false,false,
	| false,false,false,false,false,false,false,false,false,false,true,true,
	| false,false,false,false,false,false,true,true,true,false,false,false,
	| false,false,false,false,false,false,true,true,true,false,false,false,
	| false,false,false,false,true,true,false,false,false,false,false,false,
	| false,false,true,false,false,false,true,true,true,false,false,false,
	| false,false,false,false,false,true,false,false,false,false,false,false,
	| true,true,true,false,false,false,false,false,false,false,false,false,
	| false,true,true,false,false,false,false,false,false,false,false,false, |];

nPrecs = 194;
pred = [1,1,1,2,2,2,3,3,3,4,4,4,5,5,5,6,6,6,7,7,7,8,8,8,9,9,9,10,10,10,11,11,11,12,12,12,13,13,13,14,14,14,15,15,15,16,16,16,17,17,17,18,18,18,19,19,19,20,21,21,22,22,22,23,23,23,24,24,24,25,25,25,26,26,26,27,27,28,28,28,29,29,30,30,30,31,31,32,32,32,33,34,35,35,35,36,36,36,37,37,37,38,38,38,39,39,40,40,40,41,41,42,42,42,43,43,43,44,44,45,45,45,46,46,47,47,48,48,48,49,50,50,50,51,51,51,52,52,52,53,54,54,55,55,56,57,57,57,58,58,59,60,60,60,61,62,63,64,64,64,65,65,66,67,68,68,69,70,70,71,72,72,73,74,75,75,76,77,77,78,79,80,81,82,83,84,84,85,86,87,88,89,90,91];
succ = [2,3,4,12,6,14,76,7,8,9,5,8,25,28,20,41,44,39,38,31,16,10,23,72,42,11,19,33,41,22,35,13,23,17,15,24,29,38,56,34,60,47,18,21,26,34,36,63,27,67,62,48,30,32,69,68,37,66,50,30,25,59,29,36,55,39,53,86,40,77,30,54,59,46,79,48,40,89,36,45,61,48,52,53,70,59,40,85,37,47,58,88,43,68,63,65,60,44,41,44,45,49,67,39,52,54,43,51,54,61,56,57,43,84,70,47,64,49,74,77,78,56,49,84,74,72,65,73,80,83,89,67,53,68,71,72,60,71,64,62,73,69,57,58,80,61,62,63,65,64,86,66,78,90,70,81,85,75,69,87,66,83,74,84,82,80,82,73,71,81,81,75,75,88,89,78,77,86,79,79,82,83,87,91,90,85,88,90,87,91,91,92,92,92];

nUnrels = 2454;
unpred = [2,2,2,2,2,2,2,2,2,2,2,2,2,2,2,2,2,2,2,2,2,2,2,2,2,2,2,2,3,3,3,3,3,3,3,3,3,3,3,3,3,3,3,3,3,3,3,3,3,3,3,3,3,4,4,4,4,4,4,4,4,4,4,4,4,4,4,4,4,4,4,4,4,5,5,5,5,5,5,5,5,5,5,5,5,5,5,5,5,5,5,5,5,5,5,5,5,5,5,5,5,5,5,5,5,5,5,5,5,5,5,5,5,5,5,5,5,5,5,5,5,5,5,6,6,6,6,6,6,6,6,6,6,6,6,6,6,6,6,6,6,6,6,6,6,6,6,6,6,6,6,6,6,6,6,6,6,6,6,6,6,6,6,6,6,6,6,6,6,6,6,6,6,6,6,6,6,6,6,6,7,7,7,7,7,7,7,7,7,7,7,7,7,7,7,7,7,7,7,7,7,7,7,7,7,7,7,7,7,7,7,7,7,7,7,7,7,7,7,7,7,8,8,8,8,8,8,8,8,8,8,8,8,8,8,8,8,8,8,8,8,8,8,8,8,8,8,8,8,8,8,8,8,8,8,9,9,9,9,9,9,9,9,9,9,9,9,9,9,9,9,9,9,9,9,9,9,9,9,9,9,9,10,10,10,10,10,10,10,10,10,10,10,10,10,10,10,10,10,10,10,10,10,10,10,10,10,10,10,10,10,10,10,10,10,10,10,10,10,10,10,10,10,10,10,11,11,11,11,11,11,11,11,11,11,11,11,11,11,11,11,11,11,11,11,11,11,11,11,11,11,11,11,11,11,11,11,11,12,12,12,12,12,12,12,12,12,12,12,12,12,12,12,12,12,12,12,12,12,12,12,13,13,13,13,13,13,13,13,13,13,13,13,13,13,13,13,13,13,13,13,13,13,13,13,13,13,13,13,13,13,13,13,13,13,13,13,13,13,13,13,13,13,13,13,13,14,14,14,14,14,14,14,14,14,14,14,14,14,14,14,14,14,14,14,14,14,14,14,14,14,14,14,14,14,14,14,14,14,14,14,14,14,14,14,14,14,14,14,14,14,14,14,14,14,14,14,14,14,14,14,14,14,14,14,14,14,15,15,15,15,15,15,15,15,15,15,15,15,15,15,15,15,15,15,15,15,15,15,15,15,15,15,15,15,15,16,16,16,16,16,16,16,16,16,16,16,16,16,16,16,16,16,16,16,16,16,16,16,16,16,16,16,16,16,16,16,16,16,16,16,16,16,16,16,16,16,16,16,16,16,16,16,16,16,16,16,16,16,16,16,16,16,16,17,17,17,17,17,17,17,17,17,17,17,17,17,17,17,17,17,17,17,17,17,17,17,17,17,17,17,17,17,17,17,17,17,17,17,17,17,17,17,17,17,18,18,18,18,18,18,18,18,18,18,18,18,18,18,18,18,18,18,18,18,18,18,18,18,18,18,18,18,18,18,18,18,18,18,19,19,19,19,19,19,19,19,19,19,19,19,19,19,19,19,19,19,19,19,19,19,19,19,19,19,19,19,19,19,19,19,19,19,19,19,19,19,19,19,19,19,19,19,19,20,20,20,20,20,20,20,20,20,20,20,20,20,20,20,20,20,20,20,20,20,20,20,20,20,20,20,20,20,20,20,20,20,20,20,20,20,20,20,20,20,20,20,20,20,20,20,20,20,20,20,20,20,20,20,20,20,20,20,20,20,20,20,20,20,20,20,21,21,21,21,21,21,21,21,21,21,21,21,21,21,21,21,21,21,21,21,21,21,21,21,21,21,21,21,21,21,21,21,21,21,21,21,21,21,21,21,21,21,21,21,22,22,22,22,22,22,22,22,22,22,22,22,22,22,22,22,22,22,22,22,22,22,22,22,22,22,22,22,22,22,22,22,22,22,22,22,23,23,23,23,23,23,23,23,23,23,23,23,23,23,23,23,23,23,23,23,23,23,23,23,23,23,23,23,23,23,23,23,23,23,23,24,24,24,24,24,24,24,24,24,24,24,24,24,24,24,24,24,24,24,24,24,24,24,24,24,24,24,24,24,24,24,24,24,24,24,24,24,24,24,25,25,25,25,25,25,25,25,25,25,25,25,25,25,25,25,25,25,25,25,25,25,25,25,25,25,25,25,25,25,25,25,25,25,25,25,25,25,25,25,25,26,26,26,26,26,26,26,26,26,26,26,26,26,26,26,26,26,26,26,26,26,26,26,26,26,26,26,26,26,26,26,26,26,26,26,26,26,26,26,26,26,26,26,26,26,26,26,26,26,26,26,26,27,27,27,27,27,27,27,27,27,27,27,27,27,27,27,27,27,27,27,27,27,27,27,27,27,27,27,27,27,27,27,27,27,27,27,27,28,28,28,28,28,28,28,28,28,28,28,28,28,28,28,28,28,28,28,28,28,28,28,28,28,28,28,28,28,28,28,28,28,28,28,28,28,28,28,28,28,28,29,29,29,29,29,29,29,29,29,29,29,29,29,29,29,29,29,29,29,29,29,29,29,29,29,29,29,29,29,29,29,29,29,29,29,29,29,29,29,29,29,29,30,30,30,30,30,30,30,30,30,30,30,30,30,30,30,30,30,30,30,30,30,30,30,30,30,30,30,30,30,30,30,30,30,30,30,30,30,30,30,30,31,31,31,31,31,31,31,31,31,31,31,31,31,31,31,31,31,31,31,31,31,31,31,31,31,31,31,31,31,31,31,31,31,32,32,32,32,32,32,32,32,32,32,32,32,32,32,32,32,32,32,32,32,32,32,32,32,32,32,32,32,32,32,32,33,33,33,33,33,33,33,33,33,33,33,33,33,33,33,33,33,33,33,33,33,33,33,33,33,33,33,33,33,33,33,33,33,33,33,33,33,33,33,33,33,33,34,34,34,34,34,34,34,34,34,34,34,34,34,34,34,34,34,34,34,34,34,34,34,34,34,34,34,34,34,34,34,34,34,34,34,34,34,34,34,34,34,34,34,34,34,34,34,34,34,34,34,34,34,34,34,35,35,35,35,35,35,35,35,35,35,35,35,35,35,35,35,35,35,35,35,35,35,35,35,35,35,35,35,35,35,35,35,36,36,36,36,36,36,36,36,36,36,36,36,36,36,36,36,36,36,36,36,36,36,36,36,36,36,36,36,36,36,36,36,36,36,36,36,36,36,36,36,36,36,37,37,37,37,37,37,37,37,37,37,37,37,37,37,37,37,37,37,37,37,37,37,37,37,37,37,37,37,37,37,38,38,38,38,38,38,38,38,38,38,38,38,38,38,38,38,38,38,38,38,38,38,38,38,38,38,38,38,39,39,39,39,39,39,39,39,39,39,39,39,39,39,39,39,39,39,39,39,39,39,39,39,39,39,39,39,39,39,39,39,39,40,40,40,40,40,40,40,40,40,40,40,40,40,40,40,40,40,40,40,40,40,40,40,40,40,40,40,41,41,41,41,41,41,41,41,41,41,41,41,41,41,41,41,41,41,41,41,41,41,41,41,41,41,41,41,41,41,41,41,41,41,42,42,42,42,42,42,42,42,42,42,42,42,42,42,42,42,42,42,42,42,42,42,42,42,43,43,43,43,43,43,43,43,43,43,43,43,43,43,43,43,43,43,43,43,43,43,43,43,43,43,43,43,43,43,43,44,44,44,44,44,44,44,44,44,44,44,44,44,44,44,44,44,44,44,44,44,44,44,44,44,44,44,44,44,44,44,44,44,44,44,44,44,44,44,44,44,45,45,45,45,45,45,45,45,45,45,45,45,45,45,45,45,45,45,45,45,45,45,45,45,45,45,45,45,45,45,45,45,45,45,45,46,46,46,46,46,46,46,46,46,46,46,46,46,46,46,46,46,46,46,46,46,46,46,46,46,46,46,46,46,46,46,46,46,46,46,46,46,46,47,47,47,47,47,47,47,47,47,47,47,47,47,47,47,47,47,47,47,47,47,47,47,47,47,47,47,47,47,47,47,47,47,48,48,48,48,48,48,48,48,48,48,48,48,48,48,48,48,48,48,48,48,48,48,48,48,48,48,48,48,48,49,49,49,49,49,49,49,49,49,49,49,49,49,49,49,49,49,49,49,49,49,49,49,49,49,49,49,49,49,49,49,49,49,49,49,49,49,49,49,49,50,50,50,50,50,50,50,50,50,50,50,50,50,50,50,50,50,50,50,50,50,50,50,50,50,50,50,50,50,50,51,51,51,51,51,51,51,51,51,51,51,51,51,51,51,51,51,51,51,51,51,51,51,51,51,51,52,52,52,52,52,52,52,52,52,52,52,52,52,52,52,52,52,52,52,52,52,52,52,53,53,53,53,53,53,53,53,53,53,53,53,53,53,53,53,53,53,53,53,53,53,53,53,53,53,53,53,53,53,53,53,53,53,54,54,54,54,54,54,54,54,54,54,54,54,54,54,54,54,54,54,54,54,54,54,54,54,54,54,54,54,54,55,55,55,55,55,55,55,55,55,55,55,56,56,56,56,56,56,56,56,56,56,56,56,56,56,56,56,56,56,56,56,56,56,56,56,56,56,56,56,56,56,56,56,57,57,57,57,57,57,57,57,57,57,57,57,57,57,57,57,57,57,58,58,58,58,58,58,58,58,58,58,58,58,58,58,58,58,58,58,59,59,59,59,59,59,59,59,59,59,59,59,59,59,59,59,59,59,59,59,59,59,59,59,59,59,59,59,59,60,60,60,60,60,60,60,60,60,60,60,60,60,60,60,60,60,60,60,60,60,60,60,61,61,61,61,61,61,61,61,61,61,61,61,61,61,61,61,61,61,61,62,62,62,62,62,62,62,62,62,62,62,62,62,62,62,62,62,62,62,62,62,62,62,62,62,62,63,63,63,63,63,63,63,63,63,63,63,63,63,63,63,63,63,63,63,63,63,63,63,63,63,63,64,64,64,64,64,64,64,64,64,64,64,64,64,64,64,64,64,64,64,65,65,65,65,65,65,65,65,65,65,65,65,65,65,65,65,65,65,65,65,66,66,66,66,66,66,66,66,66,66,66,66,66,66,66,66,66,66,66,66,66,66,67,67,67,67,67,67,67,67,67,67,67,67,67,67,67,67,67,67,67,68,68,68,68,68,68,68,68,68,68,68,68,68,68,68,68,68,68,69,69,69,69,69,69,69,69,69,69,69,69,69,69,69,69,69,69,69,69,70,70,70,70,70,70,70,70,70,70,70,71,71,71,71,71,71,71,71,71,71,71,71,71,71,71,71,71,72,72,72,72,72,72,72,72,72,72,72,73,73,73,73,73,73,73,73,73,73,73,73,74,74,74,74,74,74,74,74,74,74,74,74,74,74,74,75,75,75,75,75,75,75,75,75,75,75,76,76,76,76,76,76,76,76,76,77,77,77,77,77,77,77,77,77,78,78,78,78,78,78,78,78,78,78,79,79,79,79,79,79,79,79,79,79,80,80,80,80,80,80,80,80,80,81,81,81,81,81,81,81,81,82,82,82,82,82,82,82,82,83,83,83,83,83,83,83,84,84,84,85,85,85,85,85,86,86,86,87,87,87,88,88,89,89,90];
unsucc = [3,4,5,7,8,9,10,11,13,16,19,20,22,23,25,28,29,31,33,35,36,38,42,55,57,58,63,76,4,5,6,9,11,12,13,14,15,17,18,19,20,21,24,26,27,28,32,35,37,42,45,46,50,6,7,12,14,15,16,17,18,21,24,26,27,31,32,34,40,46,50,51,76,6,7,8,9,10,11,12,13,14,15,16,17,18,19,21,22,23,24,26,27,29,31,32,33,34,35,37,38,39,40,41,42,43,46,47,48,50,51,55,57,58,59,61,63,67,68,72,76,84,85,7,8,9,10,11,12,13,14,15,16,17,18,19,20,21,22,23,24,25,26,27,28,29,30,31,32,33,34,35,36,37,38,40,42,43,45,46,47,48,50,51,53,55,57,58,59,62,63,65,67,68,72,76,77,84,85,86,8,9,10,11,12,13,14,15,17,18,19,20,21,22,23,24,25,26,27,28,29,30,32,33,35,37,41,42,45,46,48,50,53,55,56,57,58,61,62,76,77,9,11,12,13,14,15,16,17,18,19,20,21,24,26,27,28,31,32,34,35,37,38,40,42,43,45,46,47,50,51,67,68,76,84,10,12,14,15,16,17,18,20,21,22,24,25,26,27,28,30,31,32,33,34,40,46,50,51,53,59,76,11,12,13,14,15,16,17,18,19,20,21,23,24,26,27,28,31,32,34,35,36,37,38,39,40,42,43,44,45,46,47,49,50,51,55,57,63,67,68,72,76,84,85,12,14,15,16,17,18,19,20,21,22,24,25,26,27,28,30,31,32,33,34,37,40,41,42,45,46,50,51,53,59,76,77,86,13,14,16,19,20,22,23,25,28,29,31,33,34,35,36,38,39,42,55,57,58,63,76,14,15,16,17,18,19,20,21,22,23,24,25,26,27,28,30,31,32,33,34,35,36,37,40,41,42,43,44,45,46,47,50,51,53,55,57,58,59,62,63,68,72,76,77,86,15,16,17,18,19,20,21,22,23,24,25,26,27,28,29,30,31,32,33,35,36,37,38,39,40,41,42,43,44,45,46,48,49,50,51,52,53,54,55,56,57,58,59,61,62,63,64,65,67,68,69,70,71,73,76,77,80,83,84,85,86,16,17,19,20,22,23,24,25,27,28,29,31,33,34,35,36,38,39,40,42,43,51,54,55,57,58,63,68,76,17,18,19,20,21,22,23,24,25,26,27,28,29,30,31,32,33,35,37,38,39,40,41,42,43,45,46,47,48,50,51,52,53,54,55,56,57,58,59,61,62,64,67,68,69,70,71,72,73,75,76,77,80,81,84,86,87,89,18,19,20,21,22,23,24,25,26,28,29,30,31,32,33,34,35,36,37,38,39,41,42,44,45,46,49,50,52,53,55,56,57,58,59,60,61,63,76,77,86,19,20,21,22,23,24,25,26,27,28,29,31,33,34,35,36,38,39,40,42,43,46,50,51,54,55,57,58,59,63,67,68,76,84,20,21,22,23,24,25,26,27,28,29,30,31,32,33,34,35,36,38,39,40,42,43,46,47,48,50,51,52,53,54,55,57,58,59,60,62,63,64,65,66,67,72,76,84,85,21,22,23,24,25,26,27,28,29,30,31,32,33,34,35,36,37,38,39,40,41,42,43,44,45,46,47,48,49,50,51,52,53,54,55,56,57,58,59,60,61,62,63,64,65,67,68,69,70,71,72,73,75,76,77,78,79,80,81,82,83,84,85,86,87,89,90,22,23,24,25,26,27,28,29,31,32,33,34,35,36,37,38,39,40,41,42,43,44,45,46,47,48,49,51,54,55,56,57,58,59,61,63,65,68,72,76,77,80,83,86,23,24,26,27,28,31,32,33,34,35,36,37,38,39,40,41,42,43,44,45,46,47,49,50,51,55,56,57,58,63,67,68,72,76,84,85,24,25,26,27,28,29,30,31,32,33,34,35,37,38,40,41,42,43,45,46,47,48,50,51,53,56,59,67,68,72,76,77,80,84,86,25,26,27,28,29,30,31,32,33,34,35,36,37,38,39,41,42,44,45,46,48,49,50,52,55,56,57,58,59,60,61,63,65,66,67,76,77,84,85,26,27,28,29,31,32,33,34,35,36,37,38,39,40,41,42,43,44,45,46,47,48,49,50,51,55,56,57,58,59,61,63,65,67,68,72,76,80,83,84,85,27,28,29,30,31,32,33,34,35,36,37,38,39,40,41,42,43,44,45,47,48,50,51,52,53,54,55,56,57,58,60,61,62,63,64,65,66,67,68,69,70,71,72,73,74,75,76,77,78,80,81,89,28,29,30,31,32,33,34,35,36,37,38,39,41,42,44,45,46,49,50,52,53,55,56,57,58,59,60,61,62,63,67,76,77,84,85,86,29,30,31,32,33,34,35,37,38,39,40,41,42,43,46,47,48,50,51,52,53,54,55,57,58,59,61,62,63,64,67,68,69,70,71,72,73,75,76,81,84,85,30,31,32,33,34,35,36,37,38,39,40,41,42,43,44,45,46,47,49,50,51,52,53,54,55,56,57,58,59,60,62,63,64,67,68,69,72,76,77,84,85,86,31,32,33,34,35,36,37,38,39,40,41,42,43,44,45,46,47,48,49,50,51,54,55,56,57,58,59,61,63,65,67,68,72,76,77,80,83,84,85,86,32,33,34,35,36,37,38,39,41,42,44,45,46,48,49,50,52,53,55,56,57,58,60,61,62,63,65,66,67,76,77,84,85,33,34,35,36,38,39,40,42,43,46,48,50,51,52,53,54,55,57,58,59,60,62,63,64,65,66,67,68,69,76,84,34,35,36,37,38,39,40,41,42,43,44,45,46,47,48,49,50,51,52,53,54,55,56,57,59,60,61,62,63,67,68,70,71,72,73,76,77,80,81,84,85,86,35,36,37,38,39,40,41,42,43,44,45,46,47,48,49,50,51,52,53,54,55,56,57,58,59,60,61,62,63,64,65,66,67,68,69,70,71,72,73,74,75,76,77,78,79,80,81,82,83,84,85,86,87,89,90,36,37,38,39,40,41,42,44,45,46,48,49,50,51,52,53,54,55,56,57,58,59,60,61,62,65,66,67,76,77,84,86,37,38,39,40,41,42,43,45,46,47,48,50,51,52,53,54,55,56,57,58,59,61,62,63,64,67,68,69,70,71,72,73,75,76,77,80,81,84,85,86,87,89,38,39,40,42,43,46,47,48,50,51,52,53,54,55,57,58,59,60,62,63,64,65,66,67,68,69,72,76,84,85,40,41,42,43,44,45,46,47,48,50,51,53,55,56,57,58,59,61,62,63,65,68,70,72,76,77,80,86,40,41,42,43,44,45,46,47,48,49,50,51,53,55,56,57,58,59,61,62,63,65,67,68,70,72,76,77,80,83,84,85,86,41,42,44,45,46,48,49,50,52,53,55,56,57,58,59,60,61,62,63,65,66,67,76,77,84,85,86,42,43,44,45,46,47,48,49,50,51,52,53,54,55,57,58,59,60,62,63,64,65,66,67,68,69,72,74,76,77,84,85,86,88,44,45,46,48,49,50,51,52,53,54,55,56,58,59,60,65,66,67,68,76,77,80,83,86,44,45,46,48,49,50,51,52,53,54,55,56,57,58,59,60,61,62,63,65,66,67,68,76,77,80,83,84,85,86,90,45,46,47,48,50,51,52,53,54,55,56,57,58,59,60,61,62,63,64,65,66,67,68,69,70,71,72,73,75,76,77,78,79,80,81,82,84,85,86,87,89,46,47,48,49,50,51,52,53,54,55,57,58,59,60,61,62,63,64,65,66,67,68,69,70,71,72,73,74,75,76,81,84,85,88,89,47,48,50,51,52,53,54,55,56,57,58,59,60,61,62,63,64,65,66,67,68,69,70,71,72,73,74,75,76,77,78,79,80,81,82,86,87,89,48,49,50,51,52,53,54,55,56,57,58,59,60,61,62,63,64,65,66,67,68,69,70,71,73,76,77,80,83,84,85,86,90,49,50,51,52,53,54,55,56,57,58,59,60,61,62,63,64,67,68,69,70,71,72,76,77,81,84,85,86,87,50,51,52,53,54,55,56,57,58,59,60,61,62,63,64,65,66,67,68,69,70,71,72,73,74,75,76,77,78,79,80,81,82,84,85,86,87,88,89,91,51,52,54,55,56,57,58,59,60,61,63,64,65,66,68,69,70,71,72,73,74,75,76,77,78,79,80,82,83,86,52,53,54,55,56,57,58,59,60,61,62,63,64,65,66,67,69,70,73,74,76,77,84,85,86,88,53,54,55,56,57,58,59,61,62,63,65,67,68,70,72,73,76,77,80,83,84,85,86,54,55,56,57,58,59,60,61,63,64,65,66,67,68,69,70,71,72,73,74,75,76,77,78,79,80,82,83,84,85,86,88,89,90,55,56,57,58,59,60,61,62,63,64,65,66,67,68,70,71,72,74,76,77,80,81,83,84,85,86,87,88,90,56,59,60,67,68,72,76,77,80,84,86,57,58,59,60,61,62,63,64,65,66,67,68,69,70,71,72,73,74,75,76,77,78,79,81,82,84,85,86,87,88,89,91,58,59,60,64,65,66,67,68,69,72,74,76,77,80,83,84,86,88,59,60,61,62,63,67,68,70,71,72,73,76,77,80,81,84,85,86,60,61,62,63,64,65,66,67,68,69,70,71,72,73,74,75,76,77,78,79,80,81,82,83,84,85,88,89,90,61,62,63,64,65,67,68,69,70,71,72,73,75,76,77,80,81,83,84,85,86,87,89,62,63,64,65,66,67,68,69,72,74,76,77,80,83,84,85,86,88,90,63,64,65,66,67,68,69,70,71,72,73,74,75,76,77,78,79,80,82,83,84,85,86,88,89,90,64,65,66,67,68,69,70,71,72,73,74,75,76,77,78,79,80,81,82,83,84,86,87,88,89,91,65,66,67,68,70,71,72,73,74,76,77,80,81,83,84,85,86,88,90,67,68,69,70,71,72,73,75,76,77,78,79,80,81,82,84,85,86,87,89,67,68,69,70,71,72,73,75,76,77,78,79,80,81,82,83,84,85,86,87,89,90,68,69,70,71,72,73,74,75,76,77,78,79,80,81,82,83,86,87,89,69,70,71,72,73,74,75,76,77,78,79,81,84,85,86,87,88,89,70,71,72,73,74,75,76,77,78,79,80,81,83,84,85,86,87,88,89,90,72,74,76,77,80,83,84,85,86,88,90,72,73,74,75,76,77,78,79,80,82,83,84,85,86,88,89,90,73,74,76,77,80,83,84,85,86,88,90,74,76,77,80,81,83,84,85,86,87,88,90,75,76,77,78,79,80,81,82,83,84,85,86,87,89,90,76,77,80,81,83,84,85,86,87,88,90,78,80,81,83,84,85,88,89,90,78,80,81,83,84,85,88,89,90,80,81,83,84,85,86,87,88,89,90,80,81,83,84,85,86,87,88,89,90,81,82,84,85,86,87,88,89,91,82,83,84,85,86,88,89,90,83,84,85,86,87,88,89,90,84,85,86,87,88,89,91,86,87,89,86,87,88,89,91,88,89,90,88,89,90,89,90,90,91,91];

USEFUL_RES = [{},
	{2,3,5,9,10,11,13,14,16,17,19,21,22},
	{2,3,4,5,8,9,10,11,13,16,17,18,19,20,21,22},
	{2,3,4,5,8,9,10,11,13,16,17,18,19,20},
	{1,4,5,6,8,12,13,14,15,18,19,21,22},
	{1,2,4,5,6,8,9,12,13,15,18,20,21,22},
	{1,2,3,5,6,9,10,11,12,13,16,17,19},
	{2,3,4,5,8,9,10,11,13,14,16,17,18,19,20,21,22},
	{1,2,4,5,6,7,8,9,12,13,14,15,18,19,20,21,22},
	{1,2,4,5,6,8,9,12,13,18,20},
	{2,3,4,5,8,9,10,11,13,16,17,18,19,20},
	{5,8,13},
	{1,2,3,4,5,6,8,9,10,11,12,13,15,16,17,18,19,20,21,22},
	{1,6,12,13,15,16,17,19,21},
	{1,2,3,4,5,6,7,8,9,10,11,12,13,15,16,17,18,19},
	{21},
	{21},
	{3,5,9,13,16,17,19},
	{2,3,4,5,8,9,10,11,13,16,17,18,19,20},
	{1,6,12},
	{1,2,3,5,6,9,10,11,12,13,14,16,17,19,21,22},
	{1,2,3,4,5,6,7,8,9,10,11,12,13,14,15,16,17,18,19,20,21,22},
	{1,3,5,6,9,12,13,15,16,17,19,21,22},
	{1,2,3,4,5,6,8,9,10,11,12,13,14,15,16,17,18,19,20,21,22},
	{1,4,5,6,8,12,13,15,18},
	{1,2,4,5,6,7,8,9,12,13,15,18,20},
	{2,3,4,5,8,9,13,16,17,18,19,20,21,22},
	{2,4,5,8,9,13,18,20},
	{4,5,8,13,18},
	{2,3,4,5,8,9,13,14,16,17,18,19,20,21,22},
	{1,2,3,5,6,7,9,10,11,12,13,14,15,16,17,19,21,22},
	{14,19,21,22},
	{1,2,3,5,6,9,10,11,12,13,16,17,19},
	{1,2,3,4,5,6,7,8,9,10,11,12,13,15,16,17,18,19,20},
	{1,3,4,5,6,8,9,12,13,14,15,16,17,18,19,21,22},
	{2,3,4,5,8,9,10,11,13,16,17,18,19,20,21,22},
	{2,3,4,5,8,9,13,16,17,18,19,20},
	{1,2,3,5,6,7,9,10,11,12,13,15,16,17,19},
	{1,6,12,15},
	{1,2,3,4,5,6,7,8,9,10,11,12,13,15,16,17,18,19,20},
	{2,4,5,8,9,13,18,20},
	{2,3,4,5,8,9,10,11,13,16,17,18,19,20},
	{2,3,5,8,9,10,11,13,14,16,17,19,21,22},
	{1,6,12,15},
	{1,2,3,4,5,6,8,9,10,11,12,13,14,16,17,18,19,21,22},
	{1,2,3,4,5,6,7,8,9,10,11,12,13,15,16,17,18,19},
	{1,3,4,5,6,8,9,12,13,16,17,18,19},
	{2,3,4,5,8,9,10,11,13,16,17,18,19,20},
	{1,2,3,4,5,6,8,9,10,11,12,13,15,16,17,18,19,20},
	{3,4,5,8,9,13,14,16,17,18,19,21,22},
	{1,2,3,4,5,6,8,9,10,11,12,13,15,16,17,18,19,20},
	{1,2,3,4,5,6,8,9,10,11,12,13,15,16,17,18,19,20},
	{1,2,3,4,5,6,8,9,10,11,12,13,15,16,17,18,19,20},
	{1,2,3,4,5,6,8,9,10,11,12,13,15,16,17,18,19,20,21},
	{1,2,3,4,5,6,8,9,10,11,12,13,16,17,18,19,20},
	{2,3,4,5,8,9,10,11,13,16,17,18,19},
	{1,2,3,4,5,6,8,9,12,13,15,16,17,18,19,20},
	{1,2,3,5,6,9,10,11,12,13,15,16,17,19},
	{2,3,5,9,10,11,13,16,17,19},
	{2,3,5,9,10,11,13,16,17,19},
	{1,2,3,4,5,6,8,9,12,13,16,17,18,19,20},
	{4,5,8,13,14,18,19,21,22},
	{1,2,4,5,6,7,8,9,12,13,15,18,20},
	{1,2,3,4,5,6,8,9,10,11,12,13,15,16,17,18,19,20},
	{1,2,3,5,6,8,9,10,11,12,13,16,17,19},
	{1,2,3,5,6,7,9,10,11,12,13,15,16,17,19,21,22},
	{1,2,3,4,5,6,8,9,10,11,12,13,14,15,16,17,18,19,20,21,22},
	{1,6,12,15},
	{3,5,9,13,16,17,19},
	{1,2,3,5,6,7,8,9,10,11,12,13,14,15,16,17,19,21,22},
	{1,2,3,5,6,9,10,11,12,13,15,16,17,19},
	{2,3,5,8,9,10,11,13,14,16,17,19,21,22},
	{1,2,3,5,6,9,10,11,12,13,14,15,16,17,19,21,22},
	{1,2,3,4,5,6,8,9,10,11,12,13,14,15,16,17,18,19,21,22},
	{1,2,3,4,5,6,8,9,10,11,12,13,15,16,17,18,19},
	{1,2,3,5,6,7,9,10,11,12,13,14,15,16,17,19,21,22},
	{1,2,4,5,6,7,8,9,12,13,15,16,17,18,19,20},
	{1,2,3,4,5,6,8,9,12,13,14,15,16,17,18,19,20,21,22},
	{1,2,3,4,5,6,7,8,9,12,13,15,16,17,18,19},
	{3,5,9,13,16,17,19},
	{1,2,3,4,5,6,8,9,10,11,12,13,14,16,17,18,19,20,21,22},
	{1,2,3,4,5,6,7,8,9,10,11,12,13,15,16,17,18,19,20},
	{1,2,3,5,6,7,9,10,11,12,13,15,16,17,19},
	{2,4,5,8,9,13,18,20},
	{1,2,3,4,5,6,7,8,9,10,11,12,13,14,15,16,17,18,19,20,21,22},
	{1,2,3,5,6,7,9,12,13,14,15,16,17,19,21,22},
	{1,2,3,5,6,9,10,11,12,13,14,16,17,19,21,22},
	{1,2,3,4,5,6,8,9,10,11,12,13,14,15,16,17,18,19,20,21,22},
	{2,3,4,5,8,9,10,11,13,14,16,17,18,19,20,21,22},
	{2,3,4,5,8,9,10,11,13,16,17,18,19,20,21},
	{1,2,4,5,6,8,9,12,13,15,16,17,18,19,20},
	{}];

POTENTIAL_ACT = [{5,6,7,9,10,13,14,15,20,21,22,23,24,25,26,31,33,34,35,38,39,40,44,45,46,47,49,51,52,53,54,55,57,58,61,63,64,65,66,67,68,70,71,73,74,75,76,77,78,79,81,82,83,85,86,87,88,91},
	{2,3,4,6,7,8,9,10,11,13,15,19,21,22,24,26,27,28,30,31,33,34,36,37,38,40,41,42,43,45,46,48,49,51,52,53,54,55,56,57,58,59,60,61,63,64,65,66,67,70,71,72,73,74,75,76,77,78,79,81,82,83,84,85,86,87,88,89,90,91},
	{2,3,4,7,8,11,13,15,18,19,21,22,23,24,27,30,31,33,34,35,36,37,38,40,42,43,45,46,47,48,49,50,51,52,53,54,55,56,57,58,59,60,61,64,65,66,67,69,70,71,72,73,74,75,76,78,79,80,81,82,83,85,86,87,88,89,90},
	{3,4,5,6,8,9,10,11,13,15,19,22,24,25,26,27,28,29,30,34,35,36,37,40,41,42,45,46,47,48,49,50,51,52,53,54,55,56,57,61,62,63,64,67,74,75,77,78,79,81,82,84,85,88,89,90,91},
	{2,3,4,5,6,7,8,9,10,11,12,13,15,18,19,21,22,23,24,25,26,27,28,29,30,31,33,34,35,36,37,38,40,41,42,43,45,46,47,48,49,50,51,52,53,54,55,56,57,58,59,60,61,62,63,64,65,66,67,69,70,71,72,73,74,75,76,77,78,79,80,81,82,83,84,85,86,87,88,89,90,91},
	{5,6,7,9,10,13,14,15,20,21,22,23,24,25,26,31,33,34,35,38,39,40,44,45,46,47,49,51,52,53,54,55,57,58,61,63,64,65,66,67,68,70,71,73,74,75,76,77,78,79,81,82,83,85,86,87,88,91},
	{9,15,22,26,31,34,38,40,46,63,66,70,76,77,79,82,83,85,86},
	{3,4,5,6,8,9,10,11,12,13,15,19,22,24,25,26,27,28,29,30,34,35,36,37,40,41,42,43,45,46,47,48,49,50,51,52,53,54,55,56,57,61,62,63,64,65,67,70,72,74,75,77,78,79,81,82,84,85,88,89,90,91},
	{2,3,4,6,7,8,9,10,11,13,15,18,19,21,22,23,24,26,27,28,30,31,33,34,35,36,37,38,40,41,42,43,45,46,47,48,49,50,51,52,53,54,55,56,57,58,59,60,61,63,64,65,66,67,69,70,71,72,73,74,75,76,77,78,79,80,81,82,83,84,85,86,87,88,89,90,91},
	{2,3,4,7,8,11,13,15,19,21,22,24,31,33,34,36,38,40,42,43,45,46,48,49,51,52,53,54,55,56,58,59,60,64,65,66,67,70,71,72,73,74,75,76,81,82,83,85,87,88,89,90},
	{2,3,4,7,8,11,13,15,19,21,22,24,31,33,34,36,38,40,42,43,45,46,48,49,51,52,53,54,55,56,58,59,60,64,65,66,67,70,71,72,73,74,75,76,81,82,83,85,87,88,89,90},
	{5,6,7,9,10,13,14,15,20,21,22,23,24,25,26,31,33,34,35,38,39,40,44,45,46,47,49,51,52,53,54,55,57,58,61,63,64,65,66,67,68,70,71,73,74,75,76,77,78,79,81,82,83,85,86,87,88,91},
	{2,3,4,5,6,7,8,9,10,11,12,13,14,15,18,19,21,22,23,24,25,26,27,28,29,30,31,33,34,35,36,37,38,40,41,42,43,45,46,47,48,49,50,51,52,53,54,55,56,57,58,59,60,61,62,63,64,65,66,67,69,70,71,72,73,74,75,76,77,78,79,80,81,82,83,84,85,86,87,88,89,90,91},
	{2,5,8,9,21,22,24,30,31,32,35,43,45,50,62,67,70,72,73,74,76,78,81,85,86,87,88,89},
	{5,6,9,13,14,15,22,23,24,25,26,31,34,35,38,39,40,44,46,49,51,52,53,54,57,58,63,64,66,67,68,70,71,73,74,75,76,77,78,79,82,83,85,86,88,91},
	{2,3,4,7,8,11,13,14,15,18,19,21,22,23,24,27,30,31,33,34,35,36,37,38,40,42,43,45,46,47,48,49,50,51,52,53,54,55,56,57,58,59,60,61,64,65,66,67,69,70,71,72,73,74,75,76,77,78,79,80,81,82,83,85,86,87,88,89,90,91},
	{2,3,4,7,8,11,13,14,15,18,19,21,22,23,24,27,30,31,33,34,35,36,37,38,40,42,43,45,46,47,48,49,50,51,52,53,54,55,56,57,58,59,60,61,64,65,66,67,69,70,71,72,73,74,75,76,77,78,79,80,81,82,83,85,86,87,88,89,90,91},
	{3,4,5,6,8,9,10,11,13,15,19,22,24,25,26,27,28,29,30,34,35,36,37,40,41,42,45,46,47,48,49,50,51,52,53,54,55,56,57,61,62,63,64,67,74,75,77,78,79,81,82,84,85,88,89,90,91},
	{2,3,4,5,7,8,9,11,13,14,15,18,19,21,22,23,24,27,30,31,32,33,34,35,36,37,38,40,42,43,45,46,47,48,49,50,51,52,53,54,55,56,57,58,59,60,61,62,64,65,66,67,69,70,71,72,73,74,75,76,77,78,79,80,81,82,83,85,86,87,88,89,90,91},
	{3,4,6,8,9,10,11,13,19,22,24,26,27,28,30,34,36,37,40,41,42,48,49,51,52,53,54,55,57,61,63,64,67,77,78,81,82,84,85,88,89,90,91},
	{2,3,5,6,8,9,13,14,16,17,21,22,23,24,27,30,31,32,35,36,43,45,50,54,62,66,67,70,72,73,74,76,78,81,85,86,87,88,89,90},
	{2,3,5,6,8,9,13,21,22,23,24,27,30,31,32,35,36,43,45,50,62,66,67,70,72,73,74,76,78,81,85,86,87,88,89}];
